(set-logic UFLIA)

; MoNatDiff specific declarations
(declare-sort SetOfInts 0)
(declare-fun element (Int SetOfInts) Bool)
(declare-fun subsetInts (SetOfInts SetOfInts) Bool)
(declare-fun strictSubsetInts (SetOfInts SetOfInts) Bool)

(declare-fun x () Int)
(declare-fun y () Int)

(assert (<= y 2))
(assert (< x 0))

(check-sat)
(get-model)
